N = 11;
H = 6;
T = 2;

avail = array3d(1..N, 1..H, 1..T, [1, 6, 3, 7, 4, 1, 2, 7, 2, 2, 5, 3, 9, 0, 10, 2, 3, 0, 6, 3, 1, 3, 10, 7, 1, 8, 6, 3, 0, 5, 10, 6, 3, 5, 3, 10, 6, 0, 1, 7, 0, 6, 3, 0, 1, 5, 2, 8, 2, 4, 1, 7, 0, 3, 6, 3, 10, 9, 3, 7, 2, 0, 0, 6, 5, 8, 0, 6, 2, 10, 2, 7, 3, 7, 2, 9, 10, 5, 4, 5, 6, 7, 3, 3, 6, 8, 2, 10, 7, 7, 8, 2, 7, 6, 10, 3, 1, 1, 9, 10, 7, 0, 3, 5, 3, 2, 5, 10, 3, 8, 6, 7, 1, 7, 7, 3, 9, 10, 2, 10, 8, 10, 6, 2, 6, 7, 2, 0, 5, 7, 3, 3]);

r = array2d(1..H, 1..T, [3, 3, 4, 4, 5, 1, 2, 2, 4, 3, 2, 0]);
